50
11646

374 515
466 465
461 366
788 665
32 581
537 709
560 359
606 628
379 573
628 222
653 455
546 705
728 633
248 770
799 267
328 32
525 427
691 931
860 18
676 126
536 114
859 662
704 692
887 270
124 664
151 555
822 562
46 483
941 981
770 436
929 648
356 455
2 595
205 697
902 937
110 449
964 4
98 633
985 660
246 692
267 1000
363 338
681 677
70 482
96 726
163 116
740 727
426 665
689 591
606 59
